solution status: optimal solution found
objective value:                                    7
$_265_y                                            15 	(obj:0)
$_265_z                                            15 	(obj:0)
$_196_y                                            18 	(obj:0)
$_196_z                                            20 	(obj:0)
$_101_y                                            19 	(obj:0)
$_101_z                                            16 	(obj:0)
$_19__4_y                                           7 	(obj:0)
$_19__4_z                                          25 	(obj:0)
$_23__4_y                                          18 	(obj:0)
$_23__4_z                                          17 	(obj:0)
$_18__4_y                                          22 	(obj:0)
$_18__4_z                                          19 	(obj:0)
$_224_y                                            18 	(obj:0)
$_224_z                                            19 	(obj:0)
$_22__4_y                                          18 	(obj:0)
$_22__4_z                                          22 	(obj:0)
$_155_y                                            18 	(obj:0)
$_155_z                                            16 	(obj:0)
$_100_y                                            15 	(obj:0)
$_100_z                                            13 	(obj:0)
$_21__4_y                                          17 	(obj:0)
$_21__4_z                                          22 	(obj:0)
$_24__4_y                                          19 	(obj:0)
$_24__4_z                                          20 	(obj:0)
$_20__4_y                                          17 	(obj:0)
$_20__4_z                                           5 	(obj:0)
$_183_y                                            18 	(obj:0)
$_183_z                                            18 	(obj:0)
$_277_y                                            15 	(obj:0)
$_277_z                                            14 	(obj:0)
$_25__4_y                                          18 	(obj:0)
$_25__4_z                                          15 	(obj:0)
$_237_y                                            15 	(obj:0)
$_237_z                                            16 	(obj:0)
x36                                                 1 	(obj:1)
x50                                                 1 	(obj:1)
x51                                                 2 	(obj:1)
x52                                                 1 	(obj:1)
x68                                                 2 	(obj:1)
